NAME : eil51.out.tour
COMMENT : Tour for eil51.tsp (467)
TYPE: TOUR
DIMENSION: 51
TOUR_SELECTION
39
10
30
34
21
29
16
50
49
9
38
5
11
2
32
1
22
3
20
35
36
28
31
26
8
23
7
43
24
18
14
25
6
48
27
51
46
12
47
4
13
41
40
19
42
17
37
15
44
45
33
-1
EOF
